NAME: line_52_42
TYPE: TSP
COMMENT: srandom_52_42
DIMENSION: 52
EDGE_WEIGHT_TYPE: EUC_2D
NODE_COORD_SECTION
1 3984 3717
2 3779 3617
3 4583 4844
4 2507 4287
5 2958 3689
6 1296 907
7 3512 777
8 3983 4122
9 3624 4148
10 1966 4150
11 115 1947
12 3095 2569
13 1541 1950
14 2315 1137
15 3276 3506
16 1767 4522
17 3810 3325
18 2096 2968
19 620 1198
20 3936 3894
21 1148 2039
22 1217 1148
23 3339 772
24 3897 2964
25 228 1012
26 3614 1212
27 955 2040
28 4171 753
29 4503 1505
30 3132 4107
31 1464 1145
32 1727 4135
33 1726 1345
34 2109 2761
35 1829 162
36 2831 268
37 3022 1165
38 4855 4198
39 4190 2034
40 3617 2662
41 4375 4834
42 138 2083
43 424 4796
44 3491 3368
45 1126 2341
46 4473 1942
47 4880 2388
48 4723 2212
49 4237 513
50 457 3671
51 997 48
52 4042 2204
